(set-info :source |printed by MathSAT|)
(declare-fun |main::tmp_var_2_int@2| () (_ BitVec 32))
(declare-fun |assume::cond@2| () (_ BitVec 32))
(declare-fun |main::local_28@2| () (_ BitVec 32))
(declare-fun |main::__CPAchecker_TMP_0@3| () (_ BitVec 8))
(declare-fun |main::counter@5| () (_ BitVec 32))
(declare-fun |main::__CPAchecker_TMP_0@5| () (_ BitVec 8))
(declare-fun |main::tmp_var_1_int@5| () (_ BitVec 32))
(declare-fun |main::x1@5| () (_ BitVec 32))
(declare-fun |main::y3@5| () (_ BitVec 32))
(declare-fun |assume::cond@4| () (_ BitVec 32))
(declare-fun |main::iVar2@5| () (_ BitVec 32))
(declare-fun |main::bVar1@5| () (_ BitVec 8))
(declare-fun |main::counter@6| () (_ BitVec 32))
(declare-fun |main::y3@6| () (_ BitVec 32))
(declare-fun |main::tmp_var_1_int@6| () (_ BitVec 32))
(declare-fun |main::x1@6| () (_ BitVec 32))
(declare-fun |main::iVar2@6| () (_ BitVec 32))
(declare-fun |main::bVar1@6| () (_ BitVec 8))
(declare-fun |main::counter@7| () (_ BitVec 32))
(assert (let ((.def_447 (bvmul |main::local_28@2| |main::y3@6|)))(let ((.def_449 (bvadd |main::tmp_var_1_int@6| .def_447)))(let ((.def_450 (= |main::tmp_var_2_int@2| .def_449)))(let ((.def_451 (not .def_450)))(let ((.def_443 (= |main::__CPAchecker_TMP_0@5| |main::bVar1@6|)))(let ((.def_441 (= |main::iVar2@6| |main::counter@7|)))(let ((.def_433 (bvslt |main::counter@6| (_ bv1 32))))(let ((.def_434 (ite .def_433 (_ bv1 32) (_ bv0 32))))(let ((.def_435 (= .def_434 (_ bv0 32))))(let ((.def_436 (ite .def_435 (_ bv0 8) (_ bv1 8))))(let ((.def_438 (= .def_436 |main::bVar1@6|)))(let ((.def_429 (bvadd (_ bv1 32) |main::counter@6|)))(let ((.def_431 (= .def_429 |main::iVar2@6|)))(let ((.def_424 (bvadd (_ bv4294967295 32) |main::x1@5|)))(let ((.def_426 (= .def_424 |main::x1@6|)))(let ((.def_421 (= |main::tmp_var_1_int@6| (_ bv0 32))))(let ((.def_416 (bvadd (_ bv1 32) |main::y3@5|)))(let ((.def_418 (= .def_416 |main::y3@6|)))(let ((.def_411 (bvadd (_ bv1 32) |main::tmp_var_1_int@5|)))(let ((.def_412 (= |main::local_28@2| .def_411)))(let ((.def_406 (= |main::x1@5| (_ bv0 32))))(let ((.def_408 (not .def_406)))(let ((.def_397 (bvmul |main::local_28@2| |main::y3@5|)))(let ((.def_399 (bvadd |main::tmp_var_1_int@5| .def_397)))(let ((.def_401 (bvadd |main::x1@5| .def_399)))(let ((.def_402 (= |main::tmp_var_2_int@2| .def_401)))(let ((.def_393 (= |main::__CPAchecker_TMP_0@3| |main::bVar1@5|)))(let ((.def_391 (= |main::iVar2@5| |main::counter@6|)))(let ((.def_383 (bvslt |main::counter@5| (_ bv1 32))))(let ((.def_384 (ite .def_383 (_ bv1 32) (_ bv0 32))))(let ((.def_385 (= .def_384 (_ bv0 32))))(let ((.def_386 (ite .def_385 (_ bv0 8) (_ bv1 8))))(let ((.def_388 (= .def_386 |main::bVar1@5|)))(let ((.def_379 (bvadd (_ bv1 32) |main::counter@5|)))(let ((.def_381 (= .def_379 |main::iVar2@5|)))(let ((.def_376 (= |main::counter@5| (_ bv0 32))))(let ((.def_374 (= |main::tmp_var_2_int@2| |main::x1@5|)))(let ((.def_371 (= |main::y3@5| (_ bv0 32))))(let ((.def_367 (= |assume::cond@4| (_ bv0 32))))(let ((.def_369 (not .def_367)))(let ((.def_24 (= |main::local_28@2| (_ bv0 32))))(let ((.def_25 (not .def_24)))(let ((.def_26 (ite .def_25 (_ bv1 32) (_ bv0 32))))(let ((.def_365 (= .def_26 |assume::cond@4|)))(let ((.def_17 (= |assume::cond@2| (_ bv0 32))))(let ((.def_20 (not .def_17)))(let ((.def_12 (bvnot |main::tmp_var_2_int@2|)))(let ((.def_14 (bvlshr .def_12 (_ bv31 32))))(let ((.def_16 (= .def_14 |assume::cond@2|)))(let ((.def_21 (and .def_16 .def_20)))(let ((.def_366 (and .def_21 .def_365)))(let ((.def_370 (and .def_366 .def_369)))(let ((.def_372 (and .def_370 .def_371)))(let ((.def_285 (= |main::tmp_var_1_int@5| (_ bv0 32))))(let ((.def_373 (and .def_285 .def_372)))(let ((.def_375 (and .def_373 .def_374)))(let ((.def_377 (and .def_375 .def_376)))(let ((.def_382 (and .def_377 .def_381)))(let ((.def_389 (and .def_382 .def_388)))(let ((.def_392 (and .def_389 .def_391)))(let ((.def_394 (and .def_392 .def_393)))(let ((.def_68 (= |main::__CPAchecker_TMP_0@3| (_ bv0 8))))(let ((.def_71 (not .def_68)))(let ((.def_395 (and .def_71 .def_394)))(let ((.def_405 (and .def_395 .def_402)))(let ((.def_409 (and .def_405 .def_408)))(let ((.def_414 (and .def_409 .def_412)))(let ((.def_419 (and .def_414 .def_418)))(let ((.def_422 (and .def_419 .def_421)))(let ((.def_427 (and .def_422 .def_426)))(let ((.def_432 (and .def_427 .def_431)))(let ((.def_439 (and .def_432 .def_438)))(let ((.def_442 (and .def_439 .def_441)))(let ((.def_444 (and .def_442 .def_443)))(let ((.def_244 (= |main::__CPAchecker_TMP_0@5| (_ bv0 8))))(let ((.def_445 (and .def_244 .def_444)))(let ((.def_453 (and .def_445 .def_451))).def_453))))))))))))))))))))))))))))))))))))))))))))))))))))))))))))))))))))))))))))))